(set-info :smt-lib-version 2.6)
(set-logic QF_NIA)
(set-info :source |
    Sequential equivalence checking.
    Calypto Design Systems, Inc. <www.calypto.com>
  |)
(set-info :category "industrial")
(set-info :status sat)
(declare-fun P_2 () Int)
(declare-fun P_3 () Int)
(declare-fun P_4 () Int)
(declare-fun P_5 () Int)
(declare-fun P_6 () Int)
(declare-fun P_7 () Int)
(declare-fun P_8 () Int)
(declare-fun P_9 () Bool)
(declare-fun P_10 () Int)
(declare-fun mux_I_87448 () Int)
(declare-fun mux_I_87477 () Int)
(declare-fun mux_I_87463 () Int)
(assert (<= 0 P_2))
(assert (<= P_2 43))
(assert (<= (* 939524288 (- 1)) P_3))
(assert (<= P_3 (* 1 (- 1))))
(assert (<= 0 P_4))
(assert (<= P_4 3))
(assert (<= 0 P_5))
(assert (<= P_5 3))
(assert (<= 0 P_6))
(assert (<= P_6 3848290795520))
(assert (<= 0 P_7))
(assert (<= P_7 15))
(assert (<= 0 P_8))
(assert (<= P_8 58720268))
(assert (<= 0 P_10))
(assert (<= P_10 15))
(assert (<= 0 mux_I_87448))
(assert (<= mux_I_87448 4398046511103))
(assert (<= (* 1073741824 (- 1)) mux_I_87477))
(assert (<= mux_I_87477 1073741823))
(assert (<= 0 mux_I_87463))
(assert (<= mux_I_87463 15))
(declare-fun dz () Int)
(declare-fun rz () Bool)
(assert (let ((?v_1 (+ 8388608 (+ (* P_4 2097152) P_5))) (?v_0 (+ (ite P_9 16 0) P_10))) (let ((?v_2 (< (+ (+ (+ (+ mux_I_87477 (* (* ?v_1 (* 3 (- 1))) 64)) P_6) (* mux_I_87463 P_8)) (+ (* (* (ite (< ?v_0 16) ?v_0 (- ?v_0 32)) ?v_1) 4) 0)) 0))) (= (+ (* 2 dz) 1) (- (ite (and (not (= mux_I_87448 0)) ?v_2) 1 0) (ite ?v_2 1 0))))))
(check-sat)
(exit)
